words_hard_train/9820.qaiger
aag 23 9 0 1 14
2
4
8
10
14
16
24
28
42
47
6 2 4
12 8 10
18 14 16
20 12 18
22 6 20
26 22 24
30 26 28
32 15 5
34 17 11
36 34 9
38 32 36
40 38 29
44 41 42
46 31 44
i0 2 y1[0]
i1 2 y1[4]
i2 2 y1[3]
i3 2 y1[5]
i4 2 y1[1]
i5 2 y1[2]
i6 1 x1[7]
i7 2 y1[6]
i8 2 y1[7]
o0 bv[0]
c
simplified
  <=
    subtract
      1
      2 y1
    subtract
      1
      >> 7
        1 x1
