words_hard_train/9820.qaiger.qdimacs
p cnf 23 43
a 12 0
e 1 2 3 4 5 6 7 8 9 10 11 13 14 15 16 17 18 19 20 21 22 23 0
-1 -2 3 0
1 -3 0
2 -3 0
-4 -5 6 0
4 -6 0
5 -6 0
-7 -8 9 0
7 -9 0
8 -9 0
-6 -9 10 0
6 -10 0
9 -10 0
-3 -10 11 0
3 -11 0
10 -11 0
-11 -12 13 0
11 -13 0
12 -13 0
-13 -14 15 0
13 -15 0
14 -15 0
7 2 16 0
-7 -16 0
-2 -16 0
8 5 17 0
-8 -17 0
-5 -17 0
-17 4 18 0
17 -18 0
-4 -18 0
-16 -18 19 0
16 -19 0
18 -19 0
-19 14 20 0
19 -20 0
-14 -20 0
20 -21 22 0
-20 -22 0
21 -22 0
15 -22 23 0
-15 -23 0
22 -23 0
-23 0
